\* metodo1 *\
Maximize
Total_de_calorias: 278.4918 Alim_Leche_descremada
Subject To
Limite_inferior_de_carbos: 15.9792 Alim_Leche_descremada >= 23.2171875
Limite_inferior_de_grasas: 5.6782 Alim_Leche_descremada >= 14.6502029221
Limite_inferior_de_proteinas: 40.8678 Alim_Leche_descremada >= 23.4670955882
Limite_superior_de_carbos: 15.9792 Alim_Leche_descremada <= 25.6611019737
Limite_superior_de_grasas: 5.6782 Alim_Leche_descremada <= 16.1923295455
Limite_superior_de_proteinas: 40.8678 Alim_Leche_descremada <= 25.9373161765
_C1: 278.4918 Alim_Leche_descremada <= 335.356798581
End
